# Solution for model F-JSSP-SDST
# Objective value = 3600
B0(12) 0
B1(18) 0
B2(24) 1
B3(19) 0
B4(20) 0
B5(17) 1
B6(19) 1
B7(26) 0
B8(17) 0
B9(12) 1
B10(22) 0
B11(22) 0
B12(19) 1
B13(26) 0
B14(18) 1
B15(18) 0
B16(11) 0
B17(19) 1
B18(18) 1
B19(24) 0
B20(18) 0
B21(19) 0
B22(26) 1
B23(18) 0
B24(12) 1
B25(20) 0
B26(24) 0
B27(26) 1
B28(21) 1
B29(19) 0
B30(17) 0
B31(23) 0
B32(11) 1
B33(18) 0
B34(20) 0
B35(24) 1
B36(25) 0
B37(18) 1
B38(18) 0
B39(22) 1
B40(24) 0
B41(20) 0
B42(20) 0
B43(24) 1
B44(25) 0
B45(26) 1
B46(19) 0
B47(19) 0
B48(23) 0
B49(21) 1
B50(24) 1
B51(25) 0
B52(26) 0
B53(19) 0
B54(19) 1
B55(20) 1
B56(24) 0
B57(18) 1
B58(26) 0
B59(26) 0
B60(18) 0
B61(19) 1
B62(0) 0
B63(0) 0
B64(0) 0
B65(4) 0
B66(4) 0
B67(0) 0
B68(4) 1
B69(2) 0
B70(0) 0
B71(4) 1
B72(2) 0
B73(0) 0
B74(6) 1
B75(0) 0
B76(2) 0
B77(4) 0
B78(2) 0
B79(0) 0
B80(4) 0
B81(2) 0
B82(0) 0
B83(2) 0
B84(0) 0
B85(0) 0
B86(0) 0
B87(0) 0
B88(0) 0
B89(0) 0
B90(2) 0
B91(2) 0
B92(2) 0
B93(4) 1
B94(2) 0
B95(2) 0
B96(0) 0
B97(2) 0
B98(2) 0
B99(4) 0
B100(2) 0
B101(4) 0
B102(2) 0
B103(2) 0
B104(2) 0
B105(0) 0
B106(2) 0
B107(2) 1
B108(0) 0
B109(2) 0
B110(0) 0
B111(0) 0
B112(0) 0
B113(0) 0
B114(0) 0
B115(4) 0
B116(0) 0
B117(4) 0
B118(4) 0
B119(0) 0
B120(2) 0
B121(2) 0
B122(0) 0
B123(6) 0
B124(2) 0
B125(2) 0
B126(4) 0
B127(4) 0
B128(0) 0
B129(2) 0
B130(4) 0
B131(2) 1
B132(2) 0
B133(4) 0
B134(0) 0
B135(0) 0
B136(0) 0
B137(0) 0
B138(0) 0
B139(0) 0
B140(2) 0
B141(2) 0
B142(0) 0
B143(2) 1
B144(2) 0
B145(0) 0
B146(4) 1
B147(0) 0
B148(0) 0
B149(2) 0
B150(2) 0
B151(0) 0
B152(2) 0
B153(2) 0
B154(0) 0
B155(2) 0
B156(0) 0
B157(0) 0
B158(0) 0
B159(0) 0
B160(0) 0
B161(0) 0
B162(0) 0
B163(0) 0
B164(2) 1
B165(2) 0
B166(0) 0
B167(2) 0
B168(2) 0
B169(0) 0
B170(4) 0
B171(0) 0
B172(2) 0
B173(4) 1
B174(2) 0
B175(0) 0
B176(4) 1
B177(2) 0
B178(0) 0
B179(2) 0
B180(0) 0
B181(0) 0
B182(0) 0
B183(0) 0
B184(0) 0
B185(0) 0
B186(0) 0
B187(0) 0
B188(0) 0
B189(2) 0
B190(4) 0
B191(0) 0
B192(2) 0
B193(2) 0
B194(0) 0
B195(4) 0
B196(4) 1
B197(0) 0
B198(2) 0
B199(6) 0
B200(0) 0
B201(2) 0
B202(6) 0
B203(0) 0
B204(4) 1
B205(6) 0
B206(0) 0
B207(0) 0
B208(0) 0
B209(0) 0
B210(0) 0
B211(0) 0
B212(0) 0
B213(0) 0
B214(0) 0
B215(4) 0
B216(0) 0
B217(0) 0
B218(4) 0
B219(0) 0
B220(2) 0
B221(2) 0
B222(0) 0
B223(0) 0
B224(2) 0
B225(0) 0
B226(0) 0
B227(0) 0
B228(0) 0
B229(0) 0
B230(0) 0
B231(0) 0
B232(0) 0
B233(0) 0
B234(0) 0
B235(0) 0
B236(0) 0
B237(0) 0
B238(0) 0
B239(0) 0
B240(2) 0
B241(2) 0
B242(2) 0
B243(4) 0
B244(0) 0
B245(4) 0
B246(4) 0
B247(2) 0
B248(2) 0
B249(2) 0
B250(2) 0
B251(4) 0
B252(0) 0
B253(2) 0
B254(0) 0
B255(0) 0
B256(0) 0
B257(0) 0
B258(0) 0
B259(0) 0
B260(0) 0
B261(0) 0
B262(0) 0
B263(0) 0
B264(2) 0
B265(4) 0
B266(0) 0
B267(4) 1
B268(4) 0
B269(2) 0
B270(4) 0
B271(4) 0
B272(0) 0
B273(2) 0
B274(4) 0
B275(2) 1
B276(4) 0
B277(4) 0
B278(0) 0
B279(0) 0
B280(0) 0
B281(0) 0
B282(0) 0
B283(0) 0
B284(0) 0
B285(0) 0
B286(0) 0
B287(0) 0
B288(0) 0
B289(0) 0
B290(4) 1
B291(0) 0
B292(2) 0
B293(2) 0
B294(0) 0
B295(0) 0
B296(2) 0
B297(0) 0
B298(0) 0
B299(0) 0
B300(0) 0
B301(0) 0
B302(0) 0
B303(0) 0
B304(0) 0
B305(0) 0
B306(0) 0
B307(0) 0
B308(0) 0
B309(0) 0
B310(0) 0
B311(0) 0
B312(0) 0
B313(0) 0
B314(2) 0
B315(2) 1
B316(2) 0
B317(2) 0
B318(4) 0
B319(2) 0
B320(2) 0
B321(4) 0
B322(2) 0
B323(2) 0
B324(2) 0
B325(2) 0
B326(0) 0
B327(0) 0
B328(0) 0
B329(0) 0
B330(0) 0
B331(0) 0
B332(0) 0
B333(0) 0
B334(0) 0
B335(0) 0
B336(0) 0
B337(0) 0
B338(0) 0
B339(2) 0
B340(2) 1
B341(2) 0
B342(2) 0
B343(2) 0
B344(0) 0
B345(0) 0
B346(2) 0
B347(2) 1
B348(2) 1
B349(2) 0
B350(0) 0
B351(0) 0
B352(0) 0
B353(0) 0
B354(0) 0
B355(0) 0
B356(0) 0
B357(0) 0
B358(0) 0
B359(0) 0
B360(0) 0
B361(0) 0
B362(0) 0
B363(0) 0
B364(0) 0
B365(4) 0
B366(2) 0
B367(0) 0
B368(4) 0
B369(2) 0
B370(0) 0
B371(2) 0
B372(0) 0
B373(0) 0
B374(0) 0
B375(0) 0
B376(0) 0
B377(0) 0
B378(0) 0
B379(0) 0
B380(0) 0
B381(0) 0
B382(0) 0
B383(0) 0
B384(0) 0
B385(0) 0
B386(0) 0
B387(0) 0
B388(0) 0
B389(2) 0
B390(4) 0
B391(4) 0
B392(0) 0
B393(2) 0
B394(4) 0
B395(2) 0
B396(2) 0
B397(4) 0
B398(0) 0
B399(0) 0
B400(0) 0
B401(0) 0
B402(0) 0
B403(0) 0
B404(0) 0
B405(0) 0
B406(0) 0
B407(0) 0
B408(0) 0
B409(0) 0
B410(0) 0
B411(0) 0
B412(0) 0
B413(2) 0
B414(2) 0
B415(4) 0
B416(2) 0
B417(2) 0
B418(4) 0
B419(0) 0
B420(4) 0
B421(4) 0
B422(0) 0
B423(0) 0
B424(0) 0
B425(0) 0
B426(0) 0
B427(0) 0
B428(0) 0
B429(0) 0
B430(0) 0
B431(0) 0
B432(0) 0
B433(0) 0
B434(0) 0
B435(0) 0
B436(0) 0
B437(0) 0
B438(0) 0
B439(0) 0
B440(4) 1
B441(2) 0
B442(0) 0
B443(4) 0
B444(0) 0
B445(0) 0
B446(0) 0
B447(0) 0
B448(0) 0
B449(0) 0
B450(0) 0
B451(0) 0
B452(0) 0
B453(0) 0
B454(0) 0
B455(0) 0
B456(0) 0
B457(0) 0
B458(0) 0
B459(0) 0
B460(0) 0
B461(0) 0
B462(0) 0
B463(0) 0
B464(2) 0
B465(4) 1
B466(2) 0
B467(4) 0
B468(2) 0
B469(2) 0
B470(0) 0
B471(0) 0
B472(0) 0
B473(0) 0
B474(0) 0
B475(0) 0
B476(0) 0
B477(0) 0
B478(0) 0
B479(0) 0
B480(0) 0
B481(0) 0
B482(0) 0
B483(0) 0
B484(0) 0
B485(0) 0
B486(0) 0
B487(0) 0
B488(0) 0
B489(2) 0
B490(6) 0
B491(0) 0
B492(4) 1
B493(6) 0
B494(0) 0
B495(0) 0
B496(0) 0
B497(0) 0
B498(0) 0
B499(0) 0
B500(0) 0
B501(0) 0
B502(0) 0
B503(0) 0
B504(0) 0
B505(0) 0
B506(0) 0
B507(0) 0
B508(0) 0
B509(0) 0
B510(0) 0
B511(0) 0
B512(0) 0
B513(0) 0
B514(0) 0
B515(2) 0
B516(0) 0
B517(0) 0
B518(0) 0
B519(0) 0
B520(0) 0
B521(0) 0
B522(0) 0
B523(0) 0
B524(0) 0
B525(0) 0
B526(0) 0
B527(0) 0
B528(0) 0
B529(0) 0
B530(0) 0
B531(0) 0
B532(0) 0
B533(0) 0
B534(0) 0
B535(0) 0
B536(0) 0
B537(0) 0
B538(0) 0
B539(2) 0
B540(2) 0
B541(2) 0
B542(0) 0
B543(0) 0
B544(0) 0
B545(0) 0
B546(0) 0
B547(0) 0
B548(0) 0
B549(0) 0
B550(0) 0
B551(0) 0
B552(0) 0
B553(0) 0
B554(0) 0
B555(0) 0
B556(0) 0
B557(0) 0
B558(0) 0
B559(0) 0
B560(0) 0
B561(0) 0
B562(0) 0
B563(0) 0
B564(4) 1
B565(6) 0
B566(0) 0
B567(0) 0
B568(0) 0
B569(0) 0
B570(0) 0
B571(0) 0
B572(0) 0
B573(0) 0
B574(0) 0
B575(0) 0
B576(0) 0
B577(0) 0
B578(0) 0
B579(0) 0
B580(0) 0
B581(0) 0
B582(0) 0
B583(0) 0
B584(0) 0
B585(0) 0
B586(0) 0
B587(0) 0
B588(0) 0
B589(0) 0
B590(0) 0
B591(0) 0
B592(0) 0
B593(0) 0
B594(0) 0
B595(0) 0
B596(0) 0
B597(0) 0
B598(0) 0
B599(0) 0
B600(0) 0
B601(0) 0
B602(0) 0
B603(0) 0
B604(0) 0
B605(0) 0
B606(0) 0
B607(0) 0
B608(0) 0
B609(0) 0
B610(0) 0
B611(0) 0
B612(0) 0
B613(0) 0
B614(0) 0
B615(0) 0
B616(0) 0
B617(0) 0
B618(0) 0
B619(0) 0
B620(0) 0
B621(0) 0
B622(0) 0
B623(0) 0
B624(0) 0
B625(0) 0
B626(0) 0
B627(0) 0
B628(0) 0
B629(0) 0
B630(0) 0
B631(0) 0
B632(0) 0
B633(0) 0
B634(0) 0
B635(0) 0
B636(0) 0
B637(0) 0
I638(13) 0
I639(19) 0
I640(25) 0
I641(22) 0
I642(22) 0
I643(20) 218
I644(23) 341
I645(31) 0
I646(21) 0
I647(13) 245
I648(23) 0
I649(24) 0
I650(22) 459
I651(29) 0
I652(21) 525
I653(21) 0
I654(12) 0
I655(20) 0
I656(20) 62
I657(26) 0
I658(20) 0
I659(22) 0
I660(30) 207
I661(22) 0
I662(12) 143
I663(20) 0
I664(25) 0
I665(27) 324
I666(23) 512
I667(21) 0
I668(18) 0
I669(24) 0
I670(12) 0
I671(20) 0
I672(22) 0
I673(26) 128
I674(28) 0
I675(22) 175
I676(22) 0
I677(22) 252
I678(24) 0
I679(20) 0
I680(22) 0
I681(26) 397
I682(28) 0
I683(28) 520
I684(22) 0
I685(22) 0
I686(23) 0
I687(21) 81
I688(25) 238
I689(27) 0
I690(28) 0
I691(22) 0
I692(22) 362
I693(20) 12
I694(24) 0
I695(19) 281
I696(27) 0
I697(29) 0
I698(21) 0
I699(23) 551
I700(1) 3600
B701(0) 0
B702(0) 0
B703(0) 0
B704(0) 0
B705(0) 0
B706(0) 0
B707(3) 1
B708(3) 0
B709(3) 0
B710(0) 0
B711(0) 0
B712(0) 0
B713(0) 0
B714(3) 0
B715(3) 1
B716(3) 0
B717(0) 0
B718(0) 0
B719(0) 0
B720(0) 0
B721(0) 0
B722(3) 0
B723(3) 1
B724(3) 0
B725(0) 0
B726(0) 0
B727(0) 0
B728(0) 0
B729(3) 1
B730(3) 0
B731(0) 0
B732(0) 0
B733(0) 0
B734(0) 0
B735(0) 0
B736(0) 0
B737(3) 0
B738(3) 1
B739(3) 0
B740(0) 0
B741(0) 0
B742(0) 0
B743(0) 0
B744(0) 0
B745(0) 0
B746(3) 1
B747(3) 0
B748(3) 0
B749(0) 0
B750(0) 0
B751(0) 0
B752(0) 0
B753(3) 0
B754(3) 0
B755(3) 1
B756(0) 0
B757(0) 0
B758(0) 0
B759(0) 0
B760(3) 0
B761(3) 0
B762(3) 1
